c NeuroCodeBench 2.0 CNF formula with verdict Unsat
p cnf 13 52
-1 -11 5 10 6 0
-1 -11 -5 -12 2 0
1 -10 5 -12 3 -7 -2 0
-1 11 -12 10 -3 0
-1 11 -12 -10 5 -4 8 -6 0
1 10 -5 -6 2 -7 13 -9 0
-1 -11 5 -10 12 0
1 -10 5 12 -9 4 0
-1 11 -12 -10 5 -4 8 6 0
-1 -11 5 -10 -12 13 -2 0
1 -10 5 -12 -3 -8 0
-1 11 -12 -10 -5 -4 -3 -8 -7 0
1 -10 5 12 9 0
1 10 -5 -6 2 -7 -13 0
1 10 -5 -6 2 -7 13 9 -4 0
1 10 -5 -6 -2 7 0
1 -10 5 -12 -3 8 4 0
1 10 5 11 -13 4 0
-1 -11 -5 -12 -2 0
-1 11 -12 -10 -5 4 0
-1 11 -12 -10 -5 -4 3 2 8 0
1 10 5 -11 8 0
-1 11 -12 10 3 6 -9 0
1 10 -5 -6 2 7 0
1 10 -5 6 0
1 -10 5 -12 3 7 0
-1 11 -12 10 3 6 9 0
1 10 -5 -6 2 -7 13 9 4 0
-1 11 -12 -10 -5 -4 3 -2 0
1 10 5 11 13 0
-1 11 -12 -10 5 -4 -8 0
-1 11 -12 -10 -5 -4 -3 -8 7 0
-1 -11 5 -10 -12 -13 0
-1 -11 -5 12 0
-1 11 -12 -10 -5 -4 3 2 -8 0
1 -10 -5 6 0
-1 11 12 0
1 -10 5 -12 3 -7 2 0
1 -10 5 12 -9 -4 0
-1 11 -12 10 3 -6 0
-1 11 -12 -10 -5 -4 -3 8 -6 0
1 10 5 -11 -8 -9 0
-1 11 -12 -10 -5 -4 -3 8 6 0
-1 -11 5 -10 -12 13 2 0
1 10 -5 -6 -2 -7 0
1 10 5 -11 -8 9 0
-1 11 -12 -10 5 4 0
1 -10 -5 -6 -3 0
-1 -11 5 10 -6 0
1 -10 5 -12 -3 8 -4 0
1 -10 -5 -6 3 0
1 10 5 11 -13 -4 0
